sat
(:added-eqs                       1014
 :arith-eq-adapter                150
 :arith-bound-propagations-lp     39
 :arith-conflicts                 237
 :arith-diseq                     259
 :arith-fixed-eqs                 138
 :arith-grobner-calls             71
 :arith-grobner-conflicts         16
 :arith-horner-calls              20
 :arith-horner-conflicts          2
 :arith-horner-cross-nested-forms 3139
 :arith-lower                     534
 :arith-make-feasible             443
 :arith-max-columns               288
 :arith-max-rows                  122
 :arith-nla-add-bounds            62
 :arith-nla-lemmas                156
 :arith-nla-propagate-bounds      47
 :arith-nla-propagate-eq          670
 :arith-nra-calls                 15
 :arith-offset-eqs                41
 :arith-upper                     545
 :binary-propagations             977
 :conflicts                       61
 :decisions                       2121
 :del-clause                      266
 :elim-unconstrained              2
 :final-checks                    156
 :max-memory                      145.31
 :memory                          88.17
 :minimized-lits                  4
 :mk-bool-var                     1094
 :mk-clause                       457
 :mk-clause-binary                674
 :nlsat-conflicts                 1339
 :nlsat-decisions                 92
 :nlsat-propagations              23138
 :nlsat-restarts                  2
 :nlsat-stages                    11813
 :num-allocs                      692390631
 :num-checks                      1
 :propagations                    1678
 :rlimit-count                    1550865
 :sat-backjumps                   501
 :sat-conflicts                   501
 :sat-decisions                   1815
 :sat-del-clause                  61426
 :sat-elim-bool-vars-res          11334
 :sat-elim-clauses                10
 :sat-elim-literals               1264
 :sat-minimized-lits              1190
 :sat-mk-clause-2ary              35416
 :sat-mk-clause-3ary              15605
 :sat-mk-clause-nary              97485
 :sat-mk-var                      23697
 :sat-probing-assigned            58
 :sat-propagations-2ary           253154
 :sat-propagations-nary           177857
 :sat-restarts                    67
 :sat-scc-elim-binary             220
 :sat-scc-elim-vars               64
 :sat-subs-resolution             1062
 :sat-subs-resolution-dyn         199
 :sat-subsumed                    12346
 :sat-units                       66
 :time                            2.55
 :total-time                      2.56)
